NAME : gr137.tour
COMMENT : Optimum tour for gr137.tsp (Length 69853)
TYPE : TOUR
DIMENSION : 137
TOUR_SECTION
125
126
102
103
104
101
100
99
98
97
92
70
69
68
67
66
65
64
63
62
60
59
58
61
57
56
55
54
53
52
28
27
25
23
22
21
20
24
26
8
9
6
7
19
18
5
4
3
2
1
11
10
29
30
31
32
33
34
35
40
39
38
37
36
41
12
13
14
15
17
16
45
46
47
48
42
43
44
49
50
72
73
51
74
75
76
77
78
79
80
81
86
82
87
88
71
89
90
91
93
95
94
96
137
136
85
84
83
135
134
133
132
131
130
129
128
127
124
123
122
121
120
119
118
113
112
111
110
109
108
107
106
105
115
114
116
117
-1
EOF
